language ESSENCE' 1.0

letting n_courses be 140
letting n_periods be 17
letting prerequisite_RelationAsSet_Explicit_1 be
        [1, 1, 1, 1, 1, 1, 1, 1, 1, 1, 1, 1, 1, 1, 1, 1, 1, 1, 1, 1, 2, 2, 2, 2, 2, 2, 2, 2, 2, 2, 2, 2, 2, 2, 2, 2, 2,
         3, 3, 3, 3, 3, 3, 3, 3, 3, 3, 3, 3, 3, 3, 3, 3, 3, 3, 3, 3, 3, 3, 3, 3, 3, 3, 4, 4, 4, 4, 4, 4, 4, 4, 4, 4, 4,
         4, 4, 4, 4, 4, 4, 4, 4, 4, 4, 4, 5, 5, 5, 5, 5, 5, 5, 5, 5, 5, 6, 6, 6, 6, 6, 6, 6, 6, 6, 6, 6, 6, 6, 6, 6, 6,
         6, 6, 6, 6, 6, 6, 6, 7, 7, 7, 7, 7, 7, 7, 7, 7, 7, 7, 7, 8, 8, 8, 8, 8, 8, 8, 8, 8, 8, 8, 8, 8, 8, 8, 8, 8, 9,
         9, 9, 9, 9, 9, 9, 9, 9, 9, 9, 9, 9, 9, 9, 9, 9, 10, 10, 10, 10, 10, 10, 10, 10, 10, 10, 10, 10, 10, 10, 10, 10,
         10, 10, 11, 11, 11, 11, 11, 11, 11, 11, 11, 11, 11, 11, 11, 11, 12, 12, 12, 12, 12, 12, 12, 12, 12, 12, 12, 12,
         12, 12, 12, 12, 12, 12, 12, 13, 13, 13, 13, 13, 13, 13, 13, 13, 13, 13, 13, 13, 13, 13, 13, 13, 13, 13, 13, 13,
         14, 14, 14, 14, 14, 14, 14, 14, 14, 14, 14, 14, 14, 14, 14, 14, 14, 14, 14, 15, 15, 15, 15, 15, 15, 15, 15, 15,
         15, 15, 15, 15, 15, 15, 15, 15, 15, 15, 15, 15, 15, 15, 16, 16, 16, 16, 16, 16, 16, 16, 16, 16, 16, 16, 16, 16,
         16, 16, 16, 16, 16, 16, 16, 16, 16, 16, 16, 16, 17, 17, 17, 17, 17, 17, 17, 17, 17, 17, 17, 17, 17, 17, 17, 17,
         17, 17, 17, 17, 17, 17, 17, 17, 17, 18, 18, 18, 18, 18, 18, 18, 18, 18, 18, 18, 18, 18, 18, 18, 18, 18, 18, 18,
         18, 19, 19, 19, 19, 19, 19, 19, 19, 19, 19, 19, 19, 19, 19, 19, 19, 19, 19, 19, 19, 19, 19, 19, 19, 19, 20, 20,
         21, 21, 21, 21, 22, 22, 23, 23, 23, 24, 24, 24, 25, 25, 26, 26, 26, 27, 27, 28, 28, 28, 28, 28, 29, 29, 29, 30,
         30, 30, 30, 31, 31, 31, 32, 32, 32, 32, 33, 34, 34, 34, 35, 35, 35, 36, 36, 37, 37, 37, 37, 37, 38, 38, 38, 38,
         38, 39, 39, 40, 40, 41, 41, 41, 42, 42, 43, 43, 43, 44, 44, 44, 44, 45, 45, 46, 46, 47, 48, 49, 49, 49, 50, 50,
         51, 51, 51, 52, 52, 52, 52, 53, 53, 54, 54, 54, 55, 55, 56, 57, 57, 58, 58, 58, 59, 59, 59, 59, 60, 60, 60, 60,
         61, 61, 62, 62, 63, 63, 63, 63, 63, 64, 64, 64, 64, 65, 65, 65, 65, 66, 66, 66, 67, 67, 68, 68, 69, 69, 70, 70,
         71, 71, 71, 72, 72, 73, 73, 73, 73, 73, 73, 74, 74, 74, 74, 74, 74, 75, 75, 75, 75, 77, 77, 77, 77, 77, 78, 78,
         78, 78, 78, 79, 80, 80, 80, 81, 81, 81, 82, 83, 83, 84, 84, 84, 84, 85, 85, 85, 85, 85, 85, 85, 86, 87, 87, 88,
         88, 88, 89, 90, 90, 90, 90, 91, 91, 91, 92, 92, 92, 92, 92, 93, 93, 93, 93, 94, 94, 95, 96, 96, 96, 97, 97, 97,
         98, 98, 99, 99, 99, 99, 100, 100, 101, 102, 102, 103, 103, 103, 103, 104, 104, 105, 105, 105, 105, 106, 106,
         106, 106, 107, 107, 108, 109, 109, 111, 111, 111, 112, 113, 114, 114, 114, 114, 114, 115, 115, 115, 116, 116,
         117, 117, 117, 117, 118, 118, 119, 119, 120, 120, 121, 121, 121, 121, 121;
             int(1..660)]
letting prerequisite_RelationAsSet_Explicit_2 be
        [24, 31, 34, 38, 51, 52, 53, 57, 61, 62, 67, 73, 78, 85, 92, 93, 100, 108, 111, 118, 20, 30, 32, 36, 39, 54, 60,
         68, 71, 74, 80, 88, 98, 105, 109, 110, 117, 22, 25, 26, 28, 36, 37, 38, 40, 41, 49, 54, 57, 70, 73, 80, 88, 89,
         97, 98, 101, 102, 103, 106, 116, 119, 120, 20, 23, 29, 42, 43, 44, 48, 50, 53, 58, 61, 70, 76, 91, 92, 94, 96,
         99, 104, 112, 113, 118, 21, 33, 35, 71, 73, 75, 95, 103, 106, 114, 22, 23, 25, 30, 32, 36, 42, 47, 49, 50, 58,
         61, 62, 65, 68, 78, 80, 84, 95, 103, 106, 107, 109, 34, 47, 54, 55, 56, 58, 60, 70, 71, 80, 103, 117, 21, 28,
         32, 34, 40, 52, 58, 66, 67, 70, 71, 87, 95, 104, 107, 111, 117, 22, 25, 34, 35, 38, 39, 42, 49, 61, 79, 81, 92,
         97, 110, 114, 115, 118, 25, 38, 50, 53, 58, 61, 64, 65, 73, 76, 79, 88, 89, 90, 92, 94, 111, 118, 20, 23, 27,
         30, 31, 48, 50, 78, 83, 84, 92, 100, 109, 112, 20, 36, 38, 42, 48, 51, 54, 60, 70, 76, 80, 82, 86, 95, 98, 103,
         106, 107, 112, 20, 22, 28, 32, 42, 45, 51, 55, 63, 69, 71, 73, 75, 83, 94, 104, 108, 110, 112, 114, 119, 24,
         29, 38, 43, 46, 47, 53, 58, 67, 71, 73, 86, 87, 92, 94, 98, 108, 109, 113, 22, 28, 43, 45, 48, 49, 58, 65, 66,
         70, 72, 73, 74, 81, 82, 83, 88, 90, 99, 105, 110, 116, 119, 33, 36, 37, 38, 39, 41, 47, 50, 56, 57, 59, 61, 63,
         68, 72, 78, 87, 89, 91, 93, 100, 101, 106, 110, 114, 119, 23, 26, 30, 37, 41, 44, 46, 48, 58, 63, 69, 70, 72,
         77, 78, 82, 83, 86, 89, 94, 100, 107, 115, 118, 121, 30, 33, 49, 50, 51, 54, 57, 60, 62, 66, 76, 83, 84, 87,
         96, 100, 104, 107, 117, 118, 21, 23, 27, 29, 32, 41, 45, 50, 56, 57, 68, 71, 75, 76, 77, 87, 93, 95, 97, 110,
         111, 112, 116, 119, 121, 127, 133, 126, 127, 137, 140, 129, 135, 126, 127, 133, 123, 128, 132, 130, 132, 122,
         128, 131, 125, 126, 122, 127, 128, 134, 136, 130, 131, 139, 123, 127, 134, 139, 124, 130, 135, 126, 128, 129,
         133, 137, 125, 133, 140, 122, 126, 139, 128, 138, 124, 128, 129, 135, 140, 125, 128, 131, 138, 139, 126, 137,
         129, 136, 122, 129, 131, 130, 134, 122, 129, 138, 122, 126, 129, 130, 135, 138, 131, 140, 135, 128, 124, 131,
         132, 123, 130, 129, 136, 137, 125, 130, 132, 136, 126, 127, 122, 125, 140, 136, 138, 128, 129, 131, 122, 137,
         140, 125, 127, 129, 137, 128, 129, 130, 139, 129, 133, 122, 123, 124, 129, 131, 134, 140, 127, 128, 131, 137,
         123, 124, 133, 139, 127, 131, 135, 124, 139, 128, 129, 129, 138, 123, 139, 125, 138, 140, 123, 136, 126, 129,
         131, 134, 136, 140, 123, 124, 126, 131, 134, 138, 126, 128, 135, 137, 125, 130, 132, 135, 136, 123, 126, 133,
         138, 140, 137, 132, 134, 136, 124, 125, 135, 131, 123, 126, 123, 132, 133, 135, 125, 128, 134, 136, 137, 139,
         140, 126, 129, 136, 122, 136, 140, 137, 123, 124, 126, 137, 125, 135, 137, 122, 124, 126, 128, 130, 124, 132,
         133, 139, 123, 130, 140, 122, 131, 140, 125, 127, 133, 122, 138, 122, 124, 127, 140, 133, 136, 134, 131, 133,
         128, 133, 136, 140, 134, 138, 122, 134, 139, 140, 129, 131, 137, 140, 131, 135, 139, 123, 135, 123, 131, 137,
         139, 129, 123, 124, 130, 131, 135, 122, 125, 137, 129, 134, 123, 126, 129, 134, 125, 131, 123, 136, 132, 140,
         123, 125, 126, 128, 133;
             int(1..660)]
letting course_load_Function1D be
        [4, 4, 3, 3, 7, 4, 5, 5, 3, 6, 4, 4, 4, 5, 5, 6, 5, 7, 5, 4, 7, 3, 4, 5, 5, 6, 5, 4, 7, 5, 4, 4, 4, 5, 4, 7, 3,
         7, 5, 4, 6, 4, 5, 6, 5, 7, 5, 4, 3, 6, 3, 3, 6, 5, 3, 5, 4, 4, 6, 3, 6, 5, 4, 6, 6, 3, 5, 5, 7, 5, 4, 3, 7, 6,
         6, 4, 3, 5, 5, 4, 6, 6, 5, 4, 3, 5, 5, 4, 3, 5, 6, 6, 5, 6, 3, 3, 6, 6, 5, 7, 5, 5, 4, 3, 4, 5, 5, 3, 3, 5, 3,
         4, 7, 4, 6, 7, 7, 5, 4, 6, 5, 5, 4, 5, 4, 6, 7, 7, 6, 3, 5, 3, 4, 3, 6, 7, 4, 3, 5, 6;
             int(1..140)]
letting load_per_period_ub be 40
letting load_per_period_lb be 9
letting courses_per_period_ub be 10
letting courses_per_period_lb be 5
letting fin1 be 660
letting fin2 be 140
letting fin3 be 7
